Traveling Salesman Problem/TSP_generados/Aleatorio1620390885_7.tsp
NAME: Aleatorio1620390885_7.tsp
COMMENT: Randomly generated scenario
TYPE: TSP
DIMENSION: 7
EDGE_WEIGHT_TYPE: ATT
NODE_COORD_SECTION
1 26.23 3.59
2 17.2 40.3
3 4.07 24.04
4 18.24 33.68
5 33.03 46.74
6 4.98 2.47
7 49.26 2.95
