Traveling Salesman Problem/TSP_generados/Aleatorio1620390885_7.opt.tour
NAME: Aleatorio1620390885_7.opt.tour
COMMENT: Optimal solution for Aleatorio1620390885_7 (153.53775204486718)
TYPE: TOUR
DIMENSION: 7
TOUR_SECTION
1 6 3 4 2 5 7
-1
EOF
